14
0 498 256 186 659 484 216 935 497 873 929 333 739 989
498 0 352 416 645 153 300 638 417 541 434 190 443 599
256 352 0 331 778 419 104 934 565 850 741 163 729 934
186 416 331 0 479 350 238 756 311 700 847 312 565 825
659 645 778 479 0 493 673 452 230 467 947 682 375 619
484 153 419 350 493 0 334 518 268 431 518 263 315 520
216 300 104 238 673 334 0 841 461 762 720 119 636 855
935 638 934 756 452 518 841 0 453 105 706 782 204 200
497 417 565 311 230 268 461 453 0 415 757 455 284 556
873 541 850 700 467 431 762 105 415 0 606 694 135 152
929 434 741 847 947 518 720 706 757 606 0 601 603 548
333 190 163 312 682 263 119 782 455 694 601 0 578 772
739 443 729 565 375 315 636 204 284 135 603 578 0 273
989 599 934 825 619 520 855 200 556 152 548 772 273 0
